 import Types.dzn;

interface IDestinationSensor
{
    in void setDestination(Position posInM);
    in void cancelDestination();
    out void destinationReached();

    behavior {
        enum State  { IDLE, ARMED };
        State state = State.IDLE;

        [ state.IDLE ] on setDestination: state = State.ARMED;
        [ state.ARMED ] on cancelDestination: state = State.IDLE;
        [ state.ARMED ] on inevitable:  { destinationReached; state = State.IDLE; }
    }
}